ampl/hidato2.dat
# solution 
# 
# 45 44 41 40 39 30 31
# 46 43 42 28 29 38 32
# 47 1 3 26 27 33 37
# 48 2 25 4 34 35 36
# 49 16 24 23 5 6 8
# 17 19 15 22 12 7 9
# 18 20 21 14 13 11 10
param n := 7;
param puzzle: 1 2 3 4 5 6 7 :=
 1   . 44 41  .  .  .  . 
 2   . 43  . 28 29  .  . 
 3   .  1  .  .  . 33  . 
 4   .  2 25  4 34  . 36 
 5  49 16  . 23  .  .  . 
 6   . 19  .  . 12  7  . 
 7   .  .  . 14  .  .  . 
;
